GLPSOL--GLPK LP/MIP Solver 5.0
Parameter(s) specified in the command line:
 --lp ../modeles/10_429.lp --log 10_429.log
Reading problem data from '../modeles/10_429.lp'...
4331 rows, 8600 columns, 30080 non-zeros
4290 integer variables, all of which are binary
12947 lines were read
GLPK Integer Optimizer 5.0
4331 rows, 8600 columns, 30080 non-zeros
4290 integer variables, all of which are binary
Preprocessing...
4260 constraint coefficient(s) were reduced
4331 rows, 8590 columns, 30070 non-zeros
4290 integer variables, all of which are binary
Scaling...
 A: min|aij| =  2.173e-05  max|aij| =  4.000e+00  ratio =  1.840e+05
GM: min|aij| =  4.828e-02  max|aij| =  2.071e+01  ratio =  4.290e+02
EQ: min|aij| =  2.331e-03  max|aij| =  1.000e+00  ratio =  4.290e+02
2N: min|aij| =  1.953e-03  max|aij| =  1.764e+00  ratio =  9.032e+02
Constructing initial basis...
Size of triangular part is 4331
Solving LP relaxation...
GLPK Simplex Optimizer 5.0
4331 rows, 8590 columns, 30070 non-zeros
      0: obj =   2.000000000e+01 inf =   4.950e+01 (21)
Perturbing LP to avoid stalling [199]...
    229: obj =   4.998940448e-01 inf =   0.000e+00 (0)
Removing LP perturbation [688]...
*   688: obj =  -3.161944673e+00 inf =   1.421e-14 (0)
OPTIMAL LP SOLUTION FOUND
Integer optimization begins...
Long-step dual simplex will be used
+   688: mip =     not found yet >=              -inf        (1; 0)
+   832: >>>>>  -3.161944673e+00 >=  -3.161944673e+00   0.0% (144; 0)
+   832: mip =  -3.161944673e+00 >=     tree is empty   0.0% (0; 287)
INTEGER OPTIMAL SOLUTION FOUND
Time used:   1.1 secs
Memory used: 12.5 Mb (13126268 bytes)
